TYPE: ATSP
DIMENSION:     11
EDGE_WEIGHT_TYPE: EXPLICIT
EDGE_WEIGHT_FORMAT:FULL_MATRIX
EDGE_WEIGHT_SECTION
      0       0       0   23303   24170   24698   25355   27508   27313   28242   28917 
      0       0       0   23303   24170   23821   23698   25083   23940   24698   25083 
      0       0       0   29185   29547   28642   27760   26769   24698   23940   22526 
      0       0       0 9999999   20698 9999999   21934   24170 9999999   25698   26769 
      0       0       0 9999999 9999999 9999999 9999999   23821 9999999 9999999   26978 
      0       0       0 9999999   20698 9999999   20698   22860 9999999   24797   26022 
      0       0       0 9999999 9999999 9999999 9999999   21934 9999999 9999999   25083 
      0       0       0 9999999 9999999 9999999 9999999 9999999 9999999 9999999 9999999 
      0       0       0 9999999   24797 9999999   22860   21934 9999999   20698   21934 
      0       0       0 9999999 9999999 9999999 9999999   22526 9999999 9999999   21112 
      0       0       0 9999999 9999999 9999999 9999999 9999999 9999999 9999999 9999999 
EOF